Solver command line: ['C:\\Program Files\\IBM\\ILOG\\CPLEX_Studio2211\\cplex\\bin\\x64_win64\\cplex.exe']


Welcome to IBM(R) ILOG(R) CPLEX(R) Interactive Optimizer 22.1.1.0
  with Simplex, Mixed Integer & Barrier Optimizers
5725-A06 5725-A29 5724-Y48 5724-Y49 5724-Y54 5724-Y55 5655-Y21
Copyright IBM Corp. 1988, 2022.  All Rights Reserved.

Type 'help' for a list of available commands.
Type 'help' followed by a command name for more
information on commands.

CPLEX> Logfile 'cplex.log' closed.
Logfile 'C:\Users\wangy\Documents\GitHub\re_optimization\result_site_specific\tmpf2z4ur3w.cplex.log' open.
CPLEX> Problem 'C:\Users\wangy\Documents\GitHub\re_optimization\result_site_specific\tmpmzg7r6md.pyomo.lp' read.
Read time = 0.28 sec. (9.13 ticks)
CPLEX> Problem name         : C:\Users\wangy\Documents\GitHub\re_optimization\result_site_specific\tmpmzg7r6md.pyomo.lp
Objective sense      : Minimize
Variables            :   65769  [Nneg: 35068,  Free: 8792,  Binary: 9,
                                 Other: 21900]
Objective nonzeros   :      17
Linear constraints   :   87665  [Less: 46741,  Greater: 5,  Equal: 40919]
  Nonzeros           :  224996
  RHS nonzeros       :    3861

Variables            : Min LB: 0.000000         Max UB: 1.000000       
Objective nonzeros   : Min   : 1.000000         Max   : 1.000000       
Linear constraints   :
  Nonzeros           : Min   : 0.003011728      Max   : 100000.0       
  RHS nonzeros       : Min   : 0.07700000       Max   : 100000.0       
CPLEX> Version identifier: 22.1.1.0 | 2022-11-27 | 9160aff4d
Tried aggregator 3 times.
MIP Presolve eliminated 52378 rows and 31935 columns.
Aggregator did 10419 substitutions.
Reduced MIP has 24868 rows, 23415 columns, and 74647 nonzeros.
Reduced MIP has 5 binaries, 0 generals, 0 SOSs, and 0 indicators.
Presolve time = 0.20 sec. (224.44 ticks)
Found incumbent of value 253052.755385 after 0.30 sec. (369.99 ticks)
Probing time = 0.00 sec. (1.41 ticks)
Tried aggregator 1 time.
Detecting symmetries...
Reduced MIP has 24868 rows, 23415 columns, and 74647 nonzeros.
Reduced MIP has 5 binaries, 0 generals, 0 SOSs, and 0 indicators.
Presolve time = 0.03 sec. (47.70 ticks)
Probing time = 0.02 sec. (1.29 ticks)
MIP emphasis: balance optimality and feasibility.
MIP search method: dynamic search.
Parallel mode: deterministic, using up to 16 threads.
Root relaxation solution time = 1.14 sec. (852.05 ticks)

        Nodes                                         Cuts/
   Node  Left     Objective  IInf  Best Integer    Best Bound    ItCnt     Gap

*     0+    0                       253052.7554    -3784.1361           101.50%
      0     0     4197.8908     1   253052.7554     4197.8908       54   98.34%
*     0+    0                         4395.6344     4197.8908             4.50%
      0     0        cutoff           4395.6344                    544    0.00%
Elapsed time = 1.83 sec. (1736.29 ticks, tree = 0.01 MB, solutions = 2)

Root node processing (before b&c):
  Real time             =    1.83 sec. (1739.04 ticks)
Parallel b&c, 16 threads:
  Real time             =    0.00 sec. (0.00 ticks)
  Sync time (average)   =    0.00 sec.
  Wait time (average)   =    0.00 sec.
                          ------------
Total (root+branch&cut) =    1.83 sec. (1739.04 ticks)

Solution pool: 2 solutions saved.

MIP - Integer optimal solution:  Objective =  4.3956344106e+03
Solution time =    1.84 sec.  Iterations = 544  Nodes = 0
Deterministic time = 1739.23 ticks  (943.18 ticks/sec)

CPLEX> Incumbent solution written to file 'C:\Users\wangy\Documents\GitHub\re_optimization\result_site_specific\tmpggnu0_7a.cplex.sol'.
CPLEX> 
